; (Update2-Di-Proc1 Data2 Up2)

(set-logic LIA)

(synth-fun Update2-Di-Proc1 ((Data2 Bool) (Up2 Bool)) Bool
    ((Start Bool (Data2
                  Up2
                  true
                  false
                  (not Start)
                  (and Start Start)
                  (or Start Start)))))

(constraint (= (Update2-Di-Proc1 true true) true))
(constraint (= (Update2-Di-Proc1 false true) false))

(check-synth)

